StringID Type x y demand ReadyTime DueDate ServiceTime
D0 d 40 50.0 0.0 0.0 1236.0 0.0
Dt d 40 50.0 0.0 0.0 1236.0 0.0
C1 c3 45 68.0 10.0 78.0 140.0 90.0
C2 c2 45 70.0 30.0 499.0 553.0 90.0
C3 c2 42 66.0 10.0 863.0 931.0 90.0
C4 c2 42 68.0 10.0 584.0 656.0 90.0
C5 c3 42 65.0 10.0 950.0 1026.0 90.0
C6 c3 40 69.0 20.0 683.0 741.0 90.0
C7 c2 40 66.0 20.0 0.0 1130.0 90.0
C8 c2 38 68.0 20.0 1057.0 1125.0 90.0
C9 c2 38 70.0 10.0 958.0 1040.0 90.0
C10 c2 35 66.0 10.0 779.0 845.0 90.0
C11 c1 35 69.0 10.0 869.0 941.0 90.0
C12 c2 25 85.0 20.0 176.0 228.0 90.0
C13 c1 22 75.0 30.0 1042.0 1106.0 90.0
C14 c1 22 85.0 10.0 263.0 327.0 90.0
C15 c1 20 80.0 40.0 0.0 1109.0 90.0
C16 c3 20 85.0 40.0 358.0 416.0 90.0
C17 c1 18 75.0 20.0 633.0 711.0 90.0
C18 c1 15 75.0 20.0 0.0 1110.0 90.0
C19 c3 15 80.0 10.0 455.0 513.0 90.0
C20 c3 30 50.0 10.0 0.0 1136.0 90.0
C21 c3 30 52.0 20.0 11.0 73.0 90.0
C22 c2 28 52.0 20.0 0.0 1133.0 90.0
C23 c2 28 55.0 10.0 13.0 70.0 90.0
C24 c1 25 50.0 10.0 0.0 1131.0 90.0
C25 c1 25 52.0 40.0 158.0 232.0 90.0
C26 c1 25 55.0 10.0 672.0 744.0 90.0
C27 c2 23 52.0 10.0 263.0 311.0 90.0
C28 c1 23 55.0 20.0 438.0 510.0 90.0
C29 c2 20 50.0 10.0 0.0 1126.0 90.0
C30 c1 20 55.0 10.0 0.0 1125.0 90.0
C31 c3 10 35.0 20.0 0.0 1112.0 90.0
C32 c3 10 40.0 30.0 0.0 1114.0 90.0
C33 c1 8 40.0 40.0 355.0 437.0 90.0
C34 c1 8 45.0 20.0 0.0 1113.0 90.0
C35 c3 5 35.0 10.0 655.0 725.0 90.0
C36 c2 5 45.0 10.0 0.0 1110.0 90.0
C37 c1 2 40.0 20.0 569.0 619.0 90.0
C38 c2 0 40.0 30.0 472.0 532.0 90.0
C39 c3 0 45.0 20.0 374.0 440.0 90.0
C40 c3 35 30.0 10.0 143.0 199.0 90.0
C41 c3 35 32.0 10.0 49.0 109.0 90.0
C42 c1 33 32.0 20.0 239.0 289.0 90.0
C43 c3 33 35.0 10.0 789.0 849.0 90.0
C44 c2 32 30.0 10.0 325.0 387.0 90.0
C45 c3 30 30.0 10.0 421.0 475.0 90.0
C46 c1 30 32.0 30.0 601.0 665.0 90.0
C47 c3 30 35.0 10.0 698.0 754.0 90.0
C48 c1 28 30.0 10.0 0.0 1122.0 90.0
C49 c3 28 35.0 10.0 1011.0 1073.0 90.0
C50 c1 26 32.0 10.0 0.0 1123.0 90.0
C51 c2 25 30.0 10.0 0.0 1121.0 90.0
C52 c2 25 35.0 10.0 0.0 1124.0 90.0
C53 c1 44 5.0 20.0 437.0 511.0 90.0
C54 c1 42 10.0 40.0 810.0 868.0 90.0
C55 c2 42 15.0 10.0 905.0 963.0 90.0
C56 c3 40 5.0 30.0 350.0 410.0 90.0
C57 c3 40 15.0 40.0 989.0 1063.0 90.0
C58 c3 38 5.0 30.0 256.0 320.0 90.0
C59 c1 38 15.0 10.0 66.0 124.0 90.0
C60 c3 35 5.0 20.0 167.0 223.0 90.0
C61 c1 50 30.0 10.0 980.0 1064.0 90.0
C62 c1 50 35.0 20.0 169.0 229.0 90.0
C63 c1 50 40.0 50.0 0.0 1131.0 90.0
C64 c3 48 30.0 10.0 0.0 1124.0 90.0
C65 c3 48 40.0 10.0 67.0 139.0 90.0
C66 c3 47 35.0 10.0 1068.0 1129.0 90.0
C67 c1 47 40.0 10.0 13.0 88.0 90.0
C68 c1 45 30.0 10.0 354.0 420.0 90.0
C69 c2 45 35.0 10.0 448.0 516.0 90.0
C70 c3 95 30.0 30.0 390.0 444.0 90.0
C71 c1 95 35.0 20.0 481.0 543.0 90.0
C72 c2 53 30.0 10.0 904.0 954.0 90.0
C73 c3 92 30.0 10.0 287.0 361.0 90.0
C74 c3 53 35.0 50.0 78.0 142.0 90.0
C75 c1 45 65.0 20.0 0.0 1130.0 90.0
C76 c2 90 35.0 10.0 575.0 639.0 90.0
C77 c3 88 30.0 10.0 534.0 600.0 90.0
C78 c2 88 35.0 20.0 0.0 1095.0 90.0
C79 c3 87 30.0 10.0 0.0 1094.0 90.0
C80 c1 85 25.0 10.0 637.0 689.0 90.0
C81 c3 85 35.0 30.0 761.0 823.0 90.0
C82 c3 75 55.0 20.0 459.0 529.0 90.0
C83 c1 72 55.0 10.0 556.0 618.0 90.0
C84 c2 70 58.0 20.0 650.0 710.0 90.0
C85 c3 68 60.0 30.0 737.0 809.0 90.0
C86 c2 66 55.0 10.0 173.0 241.0 90.0
C87 c3 65 55.0 20.0 0.0 1120.0 90.0
C88 c2 65 60.0 30.0 837.0 895.0 90.0
C89 c3 63 58.0 10.0 929.0 989.0 90.0
C90 c1 60 55.0 10.0 21.0 84.0 90.0
C91 c1 60 60.0 10.0 1010.0 1096.0 90.0
C92 c2 67 85.0 20.0 459.0 519.0 90.0
C93 c1 65 85.0 40.0 546.0 616.0 90.0
C94 c1 65 82.0 10.0 0.0 1105.0 90.0
C95 c1 62 80.0 30.0 0.0 1108.0 90.0
C96 c1 60 80.0 10.0 177.0 243.0 90.0
C97 c1 60 85.0 30.0 645.0 707.0 90.0
C98 c3 58 75.0 20.0 0.0 1115.0 90.0
C99 c1 55 80.0 10.0 836.0 896.0 90.0
C100 c1 55 85.0 20.0 744.0 798.0 90.0
P0 p 87 58.0 0.0 0.0 1236.0 45.0
P1 p 85 21.0 0.0 0.0 1236.0 45.0
P2 p 2 77.0 0.0 0.0 1236.0 45.0
P3 p 1 74.0 0.0 0.0 1236.0 45.0
P4 p 65 18.0 0.0 0.0 1236.0 45.0
1 0 0 0.0 0.0 nan nan nan
0 0 1 0.0 0.0 nan nan nan
0 0 1 0.0 0.0 nan nan nan
0 0 1 0.0 0.0 nan nan nan
0 0 1 0.0 0.0 nan nan nan
0 0 1 0.0 0.0 nan nan nan
0 0 1 0.0 0.0 nan nan nan
0 0 1 0.0 0.0 nan nan nan
0 0 1 0.0 0.0 nan nan nan
0 0 1 0.0 0.0 nan nan nan
0 0 0 0.0 0.0 nan nan nan
0 0 1 0.0 0.0 nan nan nan
0 0 0 0.0 0.0 nan nan nan
0 0 0 0.0 0.0 nan nan nan
0 0 0 0.0 0.0 nan nan nan
0 0 1 0.0 0.0 nan nan nan
0 0 0 0.0 0.0 nan nan nan
0 0 0 0.0 0.0 nan nan nan
0 0 1 0.0 0.0 nan nan nan
0 0 0 1.0 0.0 nan nan nan
0 0 0 1.0 0.0 nan nan nan
0 0 0 1.0 0.0 nan nan nan
0 0 0 1.0 0.0 nan nan nan
0 0 0 0.0 0.0 nan nan nan
0 0 0 0.0 0.0 nan nan nan
0 0 0 0.0 0.0 nan nan nan
0 0 0 1.0 0.0 nan nan nan
0 0 0 0.0 0.0 nan nan nan
0 0 0 1.0 0.0 nan nan nan
0 0 0 0.0 0.0 nan nan nan
0 0 0 1.0 0.0 nan nan nan
0 0 0 1.0 0.0 nan nan nan
0 0 0 0.0 0.0 nan nan nan
0 0 0 0.0 0.0 nan nan nan
0 0 0 1.0 0.0 nan nan nan
0 0 0 1.0 0.0 nan nan nan
0 0 0 0.0 0.0 nan nan nan
0 0 0 1.0 0.0 nan nan nan
0 0 0 1.0 0.0 nan nan nan
0 0 0 0.0 1.0 nan nan nan
0 0 0 0.0 1.0 nan nan nan
0 0 0 0.0 0.0 nan nan nan
0 0 0 0.0 1.0 nan nan nan
0 0 0 0.0 1.0 nan nan nan
0 0 0 0.0 1.0 nan nan nan
0 0 0 0.0 0.0 nan nan nan
0 0 0 0.0 1.0 nan nan nan
0 0 0 0.0 0.0 nan nan nan
0 0 0 0.0 1.0 nan nan nan
0 0 0 0.0 0.0 nan nan nan
0 0 0 0.0 1.0 nan nan nan
0 0 0 0.0 1.0 nan nan nan
0 0 0 0.0 0.0 nan nan nan
0 0 0 0.0 0.0 nan nan nan
0 0 0 0.0 1.0 nan nan nan
0 0 0 0.0 1.0 nan nan nan
0 0 0 0.0 1.0 nan nan nan
0 0 0 0.0 1.0 nan nan nan
0 0 0 0.0 0.0 nan nan nan
0 0 0 0.0 1.0 nan nan nan
0 0 0 0.0 0.0 nan nan nan
0 0 0 0.0 0.0 nan nan nan
0 0 0 0.0 0.0 nan nan nan
0 0 0 0.0 1.0 nan nan nan
0 0 0 0.0 1.0 nan nan nan
0 0 0 0.0 1.0 nan nan nan
0 0 0 0.0 0.0 nan nan nan
0 0 0 0.0 0.0 nan nan nan
0 0 0 0.0 1.0 nan nan nan
0 1 0 0.0 0.0 nan nan nan
0 0 0 0.0 0.0 nan nan nan
0 0 0 0.0 1.0 nan nan nan
0 1 0 0.0 0.0 nan nan nan
0 0 0 0.0 1.0 nan nan nan
0 0 0 0.0 0.0 nan nan nan
0 1 0 0.0 0.0 nan nan nan
0 1 0 0.0 0.0 nan nan nan
0 1 0 0.0 0.0 nan nan nan
0 1 0 0.0 0.0 nan nan nan
0 0 0 0.0 0.0 nan nan nan
0 1 0 0.0 0.0 nan nan nan
1 0 0 0.0 0.0 nan nan nan
0 0 0 0.0 0.0 nan nan nan
1 0 0 0.0 0.0 nan nan nan
1 0 0 0.0 0.0 nan nan nan
1 0 0 0.0 0.0 nan nan nan
1 0 0 0.0 0.0 nan nan nan
1 0 0 0.0 0.0 nan nan nan
1 0 0 0.0 0.0 nan nan nan
0 0 0 0.0 0.0 nan nan nan
0 0 0 0.0 0.0 nan nan nan
1 0 0 0.0 0.0 nan nan nan
0 0 0 0.0 0.0 nan nan nan
0 0 0 0.0 0.0 nan nan nan
0 0 0 0.0 0.0 nan nan nan
0 0 0 0.0 0.0 nan nan nan
0 0 0 0.0 0.0 nan nan nan
1 0 0 0.0 0.0 nan nan nan
0 0 0 0.0 0.0 nan nan nan
0 0 0 0.0 0.0 nan nan nan
param CV := 200.0 nan nan nan nan
param V := 1.0 nan nan nan nan
